
Gurobi 11.0.3 (linux64) logging started Tue Apr 14 08:49:35 2026

Set parameter LogFile to value "tree/results/nwth/nwth_depth-2_run-4/Full MIP/LogFile_FullModel.txt"
Gurobi Optimizer version 11.0.3 build v11.0.3rc0 (linux64 - "CentOS Linux 7 (Core)")

CPU model: Intel(R) Xeon(R) Platinum 8260 CPU @ 2.40GHz, instruction set [SSE2|AVX|AVX2|AVX512]
Thread count: 96 physical cores, 192 logical processors, using up to 32 threads

Optimize a model with 4576 rows, 3922 columns and 30234 nonzeros
Model fingerprint: 0xdfb241e8
Model has 644 general constraints
Variable types: 1978 continuous, 1944 integer (1944 binary)
Coefficient statistics:
  Matrix range     [5e-03, 1e+04]
  Objective range  [6e-03, 1e+04]
  Bounds range     [6e-01, 7e+02]
  RHS range        [1e-04, 1e+03]

User MIP start produced solution with objective -6399.05 (0.01s)
Loaded user MIP start with objective -6399.05

Presolve added 640 rows and 1288 columns
Presolve time: 0.16s
Presolved: 5216 rows, 5210 columns, 32800 nonzeros
Presolved model has 1288 SOS constraint(s)
Variable types: 1978 continuous, 3232 integer (3232 binary)

Root relaxation: objective 1.000000e+00, 1723 iterations, 0.17 seconds (0.23 work units)

    Nodes    |    Current Node    |     Objective Bounds      |     Work
 Expl Unexpl |  Obj  Depth IntInf | Incumbent    BestBd   Gap | It/Node Time

     0     0    1.00000    0    8 -6399.0497    1.00000   100%     -    0s
     0     2    1.00000    0    8 -6399.0497    1.00000   100%     -    0s
    63    96    1.00000    6   57 -6399.0497    1.00000   100%   307    5s
H   95   128                    -6099.043478    1.00000   100%   229    7s
H  106   128                       0.9503106    1.00000  5.23%   214    7s
   159   192    1.00000    9  191    0.95031    1.00000  5.23%   166   15s
H  187   192                       0.9565217    1.00000  4.55%   151   15s
   223   342    1.00000   10  420    0.95652    1.00000  4.55%   244   38s
   341  1169    1.00000   10  370    0.95652    1.00000  4.55%   279   42s
  1168  3527    1.00000   24  435    0.95652    1.00000  4.55%   264   69s
H 2465  3527                       0.9565217    1.00000  4.55%   214   69s
H 3216  3527                       0.9627329    1.00000  3.87%   188   69s
  3534 10169    1.00000   25  403    0.96273    1.00000  3.87%   181   78s
 10524 11627    1.00000  108  195    0.96273    1.00000  3.87%   124  105s
H11770 11627                       0.9813665    1.00000  1.90%   121  105s
H12065 13907                       0.9875776    1.00000  1.26%   119  131s
H14266 13907                       0.9937888    1.00000  0.63%   113  131s
 14587 13909    1.00000   62    4    0.99379    1.00000  0.63%   111  135s
 14714 14027    1.00000   22  358    0.99379    1.00000  0.63%   113  143s
 14746 14048    1.00000   22  331    0.99379    1.00000  0.63%   113  146s
 14778 14069    1.00000   23  373    0.99379    1.00000  0.63%   113  154s
H14779 13373                       1.0000000    1.00000  0.00%   113  154s

Explored 14810 nodes (1702065 simplex iterations) in 154.69 seconds (189.54 work units)
Thread count was 32 (of 192 available processors)

Solution count 10: 1 0.993789 0.987578 ... -6399.05

Optimal solution found (tolerance 1.00e-04)
Best objective 1.000000000000e+00, best bound 1.000000000000e+00, gap 0.0000%

User-callback calls 92156, time in user-callback 0.62 sec
